c gen_tree
c unsolvable 3
p cnf 77 100
-1 -2 0
1 -3 0
-1 -4 0
1 -5 0
1 6 0
-1 7 0
-2 -3 1 0
-2 -8 0
-2 9 0
-8 9 -2 0
8 10 0
-8 11 0
-10 -11 8 0
-10 12 0
-11 13 0
13 -14 0
9 15 0
15 -16 0
15 -17 0
16 -17 15 0
-16 -18 0
-17 19 0
19 -20 0
20 21 0
21 22 0
3 23 0
-23 -24 0
-24 -25 0
-25 -26 0
4 -27 0
-27 -28 0
28 -29 0
-5 30 0
5 -31 0
-30 31 5 0
31 -32 0
32 33 0
6 34 0
-6 35 0
-6 -36 0
-34 35 6 0
34 -37 0
35 -38 0
-38 39 0
-39 -40 0
-40 -41 0
36 42 0
42 43 0
-43 44 0
-7 45 0
-7 46 0
-45 -46 -7 0
45 47 0
45 -48 0
47 48 45 0
-47 -49 0
-48 -50 0
-50 51 0
-46 52 0
46 53 0
-52 53 -46 0
-52 54 0
53 55 0
49 -57 0
49 -56 0
57 56 0
11 -59 0
11 -58 0
59 58 0
47 -61 0
47 -60 0
61 60 0
30 -63 0
30 -62 0
63 62 0
29 -65 0
29 -64 0
65 64 0
4 -67 0
4 -66 0
67 66 0
21 -69 0
21 -68 0
69 68 0
50 -71 0
50 -70 0
71 70 0
15 -73 0
15 -72 0
73 72 0
47 -75 0
47 -74 0
75 74 0
1 -77 0
1 -76 0
77 76 0
-54 -30 0
49 29 0
-49 -54 0
-29 51 -33 0
